W=7;
H=7;

MAX_TIME=W*H;
MAX_TRACKS=14;

TARGET=(1,7);

TRAINS=[(4,4,LEFT),(2,4,RIGHT)];
DECOYS=[(6,1,RIGHT)];

INIT_POS=[
(1,6,STRAIGHT_RL),
(1,7,STRAIGHT_RL),
(2,2,DSWITCH_R_L_T),
(2,3,SWITCH_L_R_D),
(2,4,STRAIGHT_RL),
(2,5,STRAIGHT_RL),
(2,6,DSWITCH_L_R_D),
(4,2,DSWITCH_R_L_T),
(4,3,STRAIGHT_RL),
(4,4,STRAIGHT_RL),
(4,5,STRAIGHT_RL),
(4,6,DSWITCH_R_L_T),
(6,1,STRAIGHT_RL),
(6,2,SWITCH_L_R_D),
];
TUNNEL_PAIRS=[
  (2, 1, RIGHT, 4, 7, LEFT),
  (2, 7, LEFT, 4, 1, RIGHT),
];

GATES=[];
ACTIVATIONS=[
(6,2,1),
];

DSWITCHES=[
(2,2,1),
(2,6,1),
(4,2,1),
(4,6,1),
];
STATIONS=[];
